c This Formular is generated by mcnf
c
c    horn? no 
c    forced? no 
c    mixed sat? no 
c    clause length = 3 
c
p cnf 20  91 
 5 -1 -7 0
6 -16 15 0
8 -19 4 0
-14 -15 8 0
-1 2 -14 0
1 -7 -19 0
-1 16 8 0
4 -10 -5 0
-10 -13 15 0
-7 13 -11 0
-18 11 16 0
-18 4 17 0
16 -17 7 0
13 9 1 0
-15 14 -20 0
12 -14 -10 0
-16 9 2 0
14 -18 -5 0
7 12 9 0
-17 16 3 0
-9 1 -20 0
%
0

3 47 1 78 94 28 41 64 17 5 43 83 77 19 23 92 96 70 78 61
